&CONTROL
  title = ' PbTe_PZ ',
  calculation = 'scf',
  restart_mode = 'from_scratch', 
  nstep  = 200,
  tstress = .TRUE.,
  tprnfor = .TRUE.,
  prefix = 'pbte',
  pseudo_dir='/home/raagya/pseudo',
  outdir = './tmp'
/
&SYSTEM
  ibrav = 0,
  celldm(1) =1.88973,
  nat = 4,
  ntyp = 2,
  occupations='smearing',
  smearing='fd',
  degauss=0.003,
  ecutwfc = 50.0,
  ecutrho =400.0,
/
&ELECTRONS
  conv_thr  =  1.0d-8
/
&ions
/
&cell
cell_factor=4,
cell_dofree='2Dxy',
/

ATOMIC_SPECIES
Ge  72.64 Ge.UPF
Te  127.6 Te.UPF

CELL_PARAMETERS (alat=  1.88973000)
   4.132763891  -0.000038617   0.000000000
   0.000034249   4.185179664   0.000000000
   0.000000000   0.000000000  23.006579499

ATOMIC_POSITIONS (angstrom)
Ge       3.100101042   3.840846572  12.672073267
Ge       1.033708437   1.748270392  10.334459573
Te       1.033736768   1.907195397  13.014760865
Te       3.100114254   3.999746543   9.991718240

K_POINTS automatic
 20 20 1 0 0 0 
