&CONTROL
  title = ' PbTe_PZ ',
  calculation = 'scf',
  restart_mode = 'from_scratch', 
  nstep  = 200,
  tstress = .TRUE.,
  tprnfor = .TRUE.,
  prefix = 'pbte',
  pseudo_dir='/home/raagya/pseudo',
  outdir = './tmp'
/
&SYSTEM
  ibrav = 0,
  celldm(1) =1.88973,
  nat = 4,
  ntyp = 2,
  occupations='smearing',
  smearing='fd',
  degauss=0.003,
  ecutwfc = 50.0,
  ecutrho =400.0,
/
&ELECTRONS
  conv_thr  =  1.0d-8
/
&ions
/
&cell
cell_dofree='2Dxy',
cell_factor=4,
/

ATOMIC_SPECIES
Sn  118.71 Sn.UPF
Se  78.96 Se.UPF

CELL_PARAMETERS (alat=  1.88973000)
   4.191789181  -0.000038225   0.000000000
   0.000035274   4.214742057   0.000000000
   0.000000000   0.000000000  23.006579499

ATOMIC_POSITIONS (angstrom)
Sn       3.144445341   3.970745262  12.859575731
Sn       1.048452388   1.863207739  10.147194576
Se       1.048489961   1.818022128  12.825588769
Se       3.144355323   3.925288551  10.180652869
K_POINTS automatic
 20 20 1 0 0 0 
