Sn2Te2
1.0
      4.4141437      -0.0000397       0.0000000
      0.0000379       4.4434089       0.0000000
      0.0000000       0.0000000      23.0066266
  Sn    Te  
  2     2   
Direct
      0.7501184       0.9311832       0.5568555
      0.2501278       0.4311992       0.4431397
      0.2501233       0.4422424       0.5682456
      0.7501197       0.9422376       0.4317487
