
&CONTROL
  title = ' PbTe_PZ ',
  calculation = 'scf',
  restart_mode = 'from_scratch',
  nstep  = 200,
  tstress = .TRUE.,
  tprnfor = .TRUE.,
  prefix = 'pbte',
  pseudo_dir='./',
  outdir = './tmp'
  wf_collect=.true.,
/
&SYSTEM
  ibrav = 0,
  celldm(1) = 8.24057,
  nat = 2,
  ntyp = 2,
  nbnd =20,
  ecutwfc = 42.0,
  ecutrho =252.0,
   nosym = .true.,
   noinv = .true.,

/
&ELECTRONS
  conv_thr  =  1.0d-8
/
&ions
/
&cell
 cell_dofree='2Dxy'
/

ATOMIC_SPECIES
Pb  207.2 Pb.UPF
Te  127.6 Te.UPF

CELL_PARAMETERS {alat}
 1.0  0.0 0.0
 0.0  1.0 0.0
 0.0  0.0 3.00708


ATOMIC_POSITIONS (crystal)
Pb    0.00000     0.00000     0.0
Te    0.50000     0.50000     0.0

K_POINTS automatic
20 20 1 0 0 0

