&CONTROL
  title = ' PbTe_PZ ',
  calculation = 'scf',
  restart_mode = 'from_scratch',
  nstep  = 200,
  tstress = .TRUE.,
  tprnfor = .TRUE.,
  prefix = 'pbte',
  pseudo_dir='../../',
  outdir = './tmp'
/
&SYSTEM
  ibrav = 0,
  celldm(1) =7.789,
  nat = 2,
  ntyp = 2,
  nbnd =15,
  ecutwfc = 42.0,
  ecutrho =252.0,
/
&ELECTRONS
  conv_thr  =  1.0d-8
/
&ions
/
&cell
 cell_dofree='2Dxy'
/

ATOMIC_SPECIES
Pb  207.2 Pb.UPF
Te  127.6 Te.UPF

CELL_PARAMETERS {alat}
 1.0  0.0 0.0
 0.50 0.86602540378443864676  0.0
 0.0                 0.0   3.03212


ATOMIC_POSITIONS (crystal)
Pb    0.00000     0.00000     0.069668581
Te    0.33333333333333333     0.33333333333333333    -0.067907081


K_POINTS automatic
15 15 1 0 0 0

