&CONTROL
  title = ' PbTe_PZ ',
  calculation = 'scf',
  restart_mode = 'from_scratch', 
  nstep  = 200,
  tstress = .TRUE.,
  tprnfor = .TRUE.,
  prefix = 'pbte',
  pseudo_dir='/home/raagya/pseudo',
  outdir = './tmp'
/
&SYSTEM
  ibrav = 0,
  celldm(1) =1.88973,
  nat = 4,
  ntyp = 2,
  occupations='smearing',
  smearing='fd',
  degauss=0.003,
  ecutwfc = 50.0,
  ecutrho =400.0,
/
&ELECTRONS
  conv_thr  =  1.0d-8
/
&ions
/
&cell
cell_factor=4,
cell_dofree='2Dxy',
/

ATOMIC_SPECIES
Pb  207.2 Pb.UPF
S   32.06 S.UPF

CELL_PARAMETERS (alat=  1.88973000)
   4.114135100  -0.000036181   0.000000000
   0.000035926   4.126464089   0.000000000
   0.000000000   0.000000000  23.006579499

ATOMIC_POSITIONS (angstrom)
Pb       3.086136858   3.862869863  12.905230423
Pb       1.029065628   1.799653902  10.101368868
S        1.029072420   1.804526166  12.747276513
S        3.086123430   3.867729911  10.259136140

K_POINTS automatic
 20 20 1 0 0 0 
