Sn1Te1
1.0
      4.2548328       0.0000000       0.0000000
      0.0000000       4.2548328       0.0000000
      0.0000000       0.0000000      12.7644984
  Sn    Te  
  1     1   
Direct
      0.0000000       0.0000000       0.0000000
      0.5000000       0.5000000       0.0000000
