Sn1Te1
1.0
      4.0381086       0.0000000       0.0000000
      2.0190543       3.4971046       0.0000000
      0.0000000       0.0000000      12.4970490
  Sn    Te  
  1     1   
Direct
      0.0000000       0.0000000       0.0685641
      0.3333333       0.3333333      -0.0668026
