Sn1Te1
1.0
      3.7669036       0.0002214       0.0000000
      0.0002214       3.7668256       0.0000000
      0.0000000       0.0000000      13.0518579
  Sn    Te  
  1     1   
Direct
      0.0009681       0.0020397       0.0593386
      0.5009588       0.5019808      -0.0493386
