&CONTROL
  title = ' SnTe_PZ ',
  calculation = 'scf',
  restart_mode = 'from_scratch',
  nstep  = 200,
  tstress = .TRUE.,
  tprnfor = .TRUE.,
  prefix = 'snte',
  pseudo_dir='../../../ps',
  outdir = './tmp'
/
&SYSTEM
  ibrav = 0,
  celldm(1) =9.806,
  nat = 2,
  ntyp = 2,
  nbnd =15,
  ecutwfc = 50.0,
  ecutrho =300.0,
/
&ELECTRONS
  conv_thr  =  1.0d-8
/
&ions
/
&cell
 cell_dofree='2Dxy'
/

ATOMIC_SPECIES
Sn  118.69 Sn.UPF
Te  127.6 Te.UPF


CELL_PARAMETERS (alat=  9.80600000)
   0.979264835  -0.000000000   0.000000000
   0.489632418   0.848068225   0.000000000
   0.000000000   0.000000000   3.000000000

ATOMIC_POSITIONS (crystal)
Sn      -0.000000000   0.000000000   0.000000000
Te       0.333333333   0.333333333   0.000000000

K_POINTS automatic
 40 40 1 0 0 0

