&CONTROL
  title = ' GeTe_PZ ',
  calculation = 'scf',
  restart_mode = 'from_scratch',
  nstep  = 200,
  tstress = .TRUE.,
  tprnfor = .TRUE.,
  prefix = 'gete',
  pseudo_dir='../../../ps',
  outdir = './tmp'
/
&SYSTEM
  ibrav = 0,
  celldm(1) =7.872,
  nat = 2,
  ntyp = 2,
  nbnd =15,
  ecutwfc = 50.0,
  ecutrho =300.0,
/
&ELECTRONS
  conv_thr  =  1.0d-7
/
&ions
/
&cell
 cell_dofree='2Dxy'
/

ATOMIC_SPECIES
Ge  72.59 Ge.UPF
Te  127.6 Te.UPF

CELL_PARAMETERS (alat=  7.87200000)
   0.919257069   0.000000000   0.000000000
   0.459628534   0.796099974   0.000000000
   0.000000000   0.000000000   3.000000000

ATOMIC_POSITIONS (crystal)
Ge      -0.000000000   0.000000000   0.063106064
Te       0.333333333   0.333333333  -0.061344564

K_POINTS automatic
 40 40 1 0 0 0

