&CONTROL
  title = ' GeTe_PZ ',
  calculation = 'scf',
  restart_mode = 'from_scratch',
  nstep  = 200,
  tstress = .TRUE.,
  tprnfor = .TRUE.,
  prefix = 'gete',
  pseudo_dir='../../../ps',
  outdir = './tmp'
/
&SYSTEM
  ibrav = 0,
  celldm(1) =9.806,
  nat = 2,
  ntyp = 2,
  nbnd =15,
  ecutwfc = 45.0,
  ecutrho =270.0,
/
&ELECTRONS
  conv_thr  =  1.0d-8
/
&ions
/
&cell
 cell_dofree='2Dxy'
/

ATOMIC_SPECIES
Ge  72.59 Ge.UPF
Te  127.6 Te.UPF

CELL_PARAMETERS (alat=  9.80600000)
   0.914108243  -0.000000000   0.000000000
   0.457054122   0.791640960   0.000000000
   0.000000000   0.000000000   3.000000000

ATOMIC_POSITIONS (crystal)
Ge      -0.000000000   0.000000000   0.000000000
Te       0.333333333   0.333333333   0.000000000

K_POINTS automatic
 40 40 1 0 0 0


