&CONTROL
  title = ' GeTe_PZ ',
  calculation = 'scf',
  restart_mode = 'from_scratch',
  nstep  = 200,
  tstress = .TRUE.,
  tprnfor = .TRUE.,
  prefix = 'gete',
  pseudo_dir='../../../ps',
  outdir = './tmps'
/
&SYSTEM
  ibrav = 0,
  celldm(1) = 7.30,
  nat = 2,
  ntyp = 2,
  nbnd =15,
  ecutwfc = 45.0,
  ecutrho =270.0,
/
&ELECTRONS
  conv_thr  =  1.0d-8
/
&ions
/
&cell
 cell_dofree='2Dxy'
/

ATOMIC_SPECIES
Ge  72.59 Ge.UPF
Te  127.6 Te.UPF

CELL_PARAMETERS (alat=  7.30000000)
   0.913557059   0.000270036   0.000000000
   0.000270035   0.913543513   0.000000000
   0.000000000   0.000000000   3.378690000

ATOMIC_POSITIONS (crystal)
Ge      -0.000258307  -0.000625127   0.056912830
Te       0.502185169   0.504645687  -0.046912830


K_POINTS automatic
40 40 1 0 0 0

