&CONTROL
  title = ' GeSe_PZ ',
  calculation = 'scf',
  restart_mode = 'from_scratch', 
  nstep  = 200,
  tstress = .TRUE.,
  tprnfor = .TRUE.,
  prefix = 'gese',
  pseudo_dir='../../../ps',
  outdir = './tmp'
/
&SYSTEM
  ibrav = 0,
  celldm(1) = 6.30,
  nat = 2,
  ntyp = 2,
  nbnd =10,
  ecutwfc = 45.0,
  ecutrho =270.0,
/
&ELECTRONS
  conv_thr  =  1.0d-8
/
&ions
/
&cell
 cell_dofree='2Dxy'
/

ATOMIC_SPECIES
Ge 72.59 Ge.UPF
Se  78.96 Se.UPF


CELL_PARAMETERS (alat=  6.30000000)
   0.999086332   0.000021053   0.000000000
   0.000021053   0.999077500   0.000000000
   0.000000000   0.000000000   3.378690000

ATOMIC_POSITIONS (crystal)
Ge      -0.000000994  -0.000002844   0.058338788
Se       0.501927856   0.504023404  -0.048338788

K_POINTS automatic
40 40 1 0 0 0 

