Sn1Te1
1.0
      5.0815146       0.0000000       0.0000000
      2.5407573       4.4007208       0.0000000
      0.0000000       0.0000000      15.5673351
  Sn    Te  
  1     1   
Direct
      0.0000000       0.0000000       0.0000000
      0.3333333       0.3333333       0.0000000
