&CONTROL
  title = ' PbSe_PZ ',
  calculation = 'scf',
  restart_mode = 'from_scratch', 
  nstep  = 200,
  tstress = .TRUE.,
  tprnfor = .TRUE.,
  prefix = 'pbse',
  pseudo_dir='../../../ps',
  outdir = './tmp'
/
&SYSTEM
  ibrav = 0,
  celldm(1) = 7.30,
  nat = 2,
  ntyp = 2,
  nbnd =10,
  ecutwfc = 45.0,
  ecutrho =270.0,
/
&ELECTRONS
  conv_thr  =  1.0d-8
/
&ions
/
&cell
 cell_dofree='2Dxy'
/

ATOMIC_SPECIES
Pb 207.2 Pb.UPF
Se 78.96 Se.UPF

CELL_PARAMETERS (alat=  7.30000000)
   0.947410045   0.000111249   0.000000000
   0.000111249   0.947418863   0.000000000
   0.000000000   0.000000000   3.378690000

ATOMIC_POSITIONS (crystal)
Pb       0.001636223   0.003410535   0.054403323
Se       0.500290639   0.500610025  -0.044403323

K_POINTS automatic
40 40 1 0 0 0 

