&CONTROL
  title = ' PbTe_PZ ',
  calculation = 'scf',
  restart_mode = 'from_scratch', 
  nstep  = 200,
  tstress = .TRUE.,
  tprnfor = .TRUE.,
  prefix = 'pbte',
  pseudo_dir='/home/raagya/pseudo',
  outdir = './tmp'
/
&SYSTEM
  ibrav = 0,
  celldm(1) =1.88973,
  nat = 4,
  ntyp = 2,
  occupations='smearing',
  smearing='fd',
  degauss=0.003,
  ecutwfc = 50.0,
  ecutrho =400.0,
/
&ELECTRONS
  conv_thr  =  1.0d-8
/
&ions
/
&cell
cell_factor=4,
cell_dofree='2Dxy',
/

ATOMIC_SPECIES
Ge  72.64 Ge.UPF
Se  78.96 Se.UPF

CELL_PARAMETERS (alat=  1.88973000)
   3.902586069  -0.000032894   0.000000000
   0.000036829   4.027078303   0.000000000
   0.000000000   0.000000000  23.006579499

ATOMIC_POSITIONS (angstrom)
Ge       2.927471958   3.659758988  12.669134137
Ge       0.976128377   1.646210549  10.337248058
Se       0.976127870   1.871136050  12.820261272
Se       2.927470196   3.884681196  10.186368477

K_POINTS automatic
 20 20 1 0 0 0 
