&CONTROL
  title = ' SnSe_PZ ',
  calculation = 'scf',
  restart_mode = 'from_scratch', 
  nstep  = 200,
  tstress = .TRUE.,
  tprnfor = .TRUE.,
  prefix = 'snse',
  pseudo_dir='../../../ps',
  outdir = './tmp'
/
&SYSTEM
  ibrav = 0,
  celldm(1) = 8.26,
  nat = 2,
  ntyp = 2,
  nbnd =10,
  ecutwfc = 45.0,
  ecutrho =270.0,
/
&ELECTRONS
  conv_thr  =  1.0d-8
/
&ions
/
&cell
 cell_dofree='2Dxy'
/

ATOMIC_SPECIES
Sn  118.69 Sn.UPF
Se   78.96 Se.UPF

CELL_PARAMETERS (alat=  8.26000000)
   0.916657721   0.000000000   0.000000000
   0.000000000   0.916657721   0.000000000
   0.000000000   0.000000000   3.000000000

ATOMIC_POSITIONS (crystal)
Sn       0.000000000   0.000000000   0.000000000
Se       0.500000000   0.500000000   0.000000000

K_POINTS automatic
40 40 1 0 0 0 

