
&CONTROL
  title = ' PbTe_PZ ',
  calculation = 'scf',
  restart_mode = 'from_scratch',
  nstep  = 200,
  tstress = .TRUE.,
  tprnfor = .TRUE.,
  prefix = 'pbte',
  pseudo_dir='./',
  outdir = './tmp'
  wf_collect=.true.,
/
&SYSTEM
  ibrav = 0,
  celldm(1) = 9.806,
  nat = 2,
  ntyp = 2,
  nbnd =20,
  ecutwfc = 42.0,
  ecutrho =252.0,
   nosym = .true.,
   noinv = .true.,

/
&ELECTRONS
  conv_thr  =  1.0d-8
/
&ions
/
&cell
 cell_dofree='2Dxy'
/

ATOMIC_SPECIES
Pb  207.2 Pb.UPF
Te  127.6 Te.UPF

CELL_PARAMETERS (alat=  9.80600000)
   0.999700228  -0.000000000   0.000000000
   0.499850114   0.865765794   0.000000000
   0.000000000   0.000000000   3.000000000

ATOMIC_POSITIONS (crystal)
Pb    0.00000     0.00000     0.0
Te    0.33333333333333333     0.33333333333333333     0.0

K_POINTS automatic
20 20 1 0 0 0

