&CONTROL
  title = ' PbS_PZ ',
  calculation = 'scf',
  restart_mode = 'from_scratch', 
  nstep  = 200,
  tstress = .TRUE.,
  tprnfor = .TRUE.,
  prefix = 'pbs',
  pseudo_dir='../../../ps',
  outdir = './tmp'
/
&SYSTEM
  ibrav = 0,
  celldm(1) =7.872,
  nat = 2,
  ntyp = 2,
  nbnd =10,
  ecutwfc = 45.0,
  ecutrho =270.0,
/
&ELECTRONS
  conv_thr  =  1.0d-8
/
&ions
/
&cell
 cell_dofree='2Dxy'
/

ATOMIC_SPECIES
Pb  207.2 Pb.UPF
S   32.06 S.UPF

CELL_PARAMETERS (alat=  7.87200000)
   0.911065000  -0.000000000   0.000000000
   0.455532500   0.789005434   0.000000000
   0.000000000   0.000000000   3.000000000

ATOMIC_POSITIONS (crystal)
Pb       0.000000000  -0.000000000   0.059725452
S        0.333333333   0.333333333  -0.057963952

K_POINTS automatic
 40 40 1 0 0 0 

